
Gurobi 10.0.0 (win64) logging started Tue Jun  4 15:21:05 2024

Set parameter LogFile to value "C:\Users\ealvarezq\Documents\GitHub\Comillas\Models\JointResearch\05. Models\06.Benchmarking\B.Operation_cost\9n_mod1_ByStages_nc50/openStarNet_9n_mod1_ByStages_nc50.log"
Set parameter Method to value 2
Set parameter MIPFocus to value 1
Set parameter Presolve to value 2
Set parameter RINS to value 100
Set parameter MIPGap to value 0.01
Set parameter Threads to value 9
Set parameter TimeLimit to value 259200
Set parameter IterationLimit to value 760000000
Gurobi Optimizer version 10.0.0 build v10.0.0rc2 (win64)

CPU model: Intel(R) Core(TM) i7-8700 CPU @ 3.20GHz, instruction set [SSE2|AVX|AVX2]
Thread count: 6 physical cores, 12 logical processors, using up to 9 threads

Optimize a model with 13103 rows, 6989 columns and 39675 nonzeros
Model fingerprint: 0x754325dc
Variable types: 6953 continuous, 36 integer (36 binary)
Coefficient statistics:
  Matrix range     [6e-04, 1e+03]
  Objective range  [1e+00, 1e+00]
  Bounds range     [9e-05, 2e+00]
  RHS range        [9e-05, 1e+00]
Presolve removed 4453 rows and 2354 columns
Presolve time: 0.05s
Presolved: 8650 rows, 4635 columns, 29599 nonzeros
Variable types: 4599 continuous, 36 integer (36 binary)
Found heuristic solution: objective 4399.0428594
Root relaxation presolved: 8650 rows, 4635 columns, 29599 nonzeros

Root barrier log...

Ordering time: 0.00s

Barrier statistics:
 Dense cols : 36
 AA' NZ     : 1.025e+05
 Factor NZ  : 2.029e+05 (roughly 7 MB of memory)
 Factor Ops : 6.756e+06 (less than 1 second per iteration)
 Threads    : 9

                  Objective                Residual
Iter       Primal          Dual         Primal    Dual     Compl     Time
   0   4.75732597e+05 -2.11390048e+07  7.17e+00 1.84e+02  4.82e+03     0s
   1   7.92721105e+04 -8.55030308e+06  9.88e-01 2.80e-09  7.38e+02     0s
   2   1.73686697e+04 -2.00354337e+06  3.33e-02 4.41e-10  1.21e+02     0s
   3   6.31182076e+03 -7.51160676e+04  3.20e-14 1.62e-11  4.77e+00     0s
   4   1.25418638e+03 -8.10943336e+03  2.13e-14 2.27e-12  5.49e-01     0s
   5   6.16868437e+02 -1.77897195e+03  1.24e-14 8.60e-13  1.40e-01     0s
   6   3.36990498e+02 -5.14702139e+02  2.13e-14 7.46e-13  4.99e-02     0s
   7   1.91749878e+02 -9.97381629e+00  2.40e-14 7.80e-13  1.18e-02     0s
   8   1.21303235e+02  3.81783239e+01  2.25e-13 6.81e-13  4.87e-03     0s
   9   9.48344985e+01  6.36183279e+01  2.87e-12 9.50e-13  1.83e-03     0s
  10   8.53750259e+01  6.70775129e+01  3.82e-12 1.08e-12  1.07e-03     0s
  11   7.94246678e+01  7.06171737e+01  1.66e-12 8.00e-13  5.16e-04     0s
  12   7.85196542e+01  7.26349170e+01  1.72e-12 6.19e-13  3.45e-04     0s
  13   7.78885723e+01  7.39474316e+01  9.04e-12 7.43e-13  2.31e-04     0s
  14   7.74663833e+01  7.44182601e+01  2.26e-11 5.50e-13  1.79e-04     0s
  15   7.65266143e+01  7.54391142e+01  5.94e-11 6.87e-13  6.37e-05     0s
  16   7.63131426e+01  7.59554207e+01  2.63e-11 1.07e-12  2.10e-05     0s
  17   7.62481417e+01  7.59710657e+01  5.48e-11 8.18e-13  1.62e-05     0s
  18   7.61741070e+01  7.59937664e+01  3.48e-11 8.15e-13  1.06e-05     0s
  19   7.61371891e+01  7.61259425e+01  1.22e-13 7.87e-13  6.59e-07     0s
  20   7.61358516e+01  7.61358395e+01  8.24e-12 9.70e-13  7.07e-10     0s
  21   7.61358495e+01  7.61358495e+01  1.03e-10 1.12e-12  7.07e-13     0s

Barrier solved model in 21 iterations and 0.21 seconds (0.23 work units)
Optimal objective 7.61358495e+01


Root relaxation: objective 7.613585e+01, 572 iterations, 0.14 seconds (0.12 work units)

    Nodes    |    Current Node    |     Objective Bounds      |     Work
 Expl Unexpl |  Obj  Depth IntInf | Incumbent    BestBd   Gap | It/Node Time

     0     0   76.13585    0    6 4399.04286   76.13585  98.3%     -    0s
H    0     0                      78.8803356   76.13585  3.48%     -    0s
     0     0   78.08585    0    1   78.88034   78.08585  1.01%     -    0s
     0     0   78.08585    0    3   78.88034   78.08585  1.01%     -    0s

Cutting planes:
  Gomory: 1
  Cover: 1
  MIR: 9

Explored 1 nodes (913 simplex iterations) in 0.47 seconds (0.36 work units)
Thread count was 9 (of 12 available processors)

Solution count 2: 78.8803 4399.04 

Optimal solution found (tolerance 1.00e-02)
Best objective 7.888033558228e+01, best bound 7.810030434700e+01, gap 0.9889%

Gurobi 10.0.0 (win64) logging started Tue Jun  4 15:21:08 2024

Set parameter LogFile to value "C:\Users\ealvarezq\Documents\GitHub\Comillas\Models\JointResearch\05. Models\06.Benchmarking\B.Operation_cost\9n_mod1_ByStages_nc50/openStarNet_9n_mod1_ByStages_nc50.log"
Set parameter Method to value 2
Set parameter MIPFocus to value 1
Set parameter Presolve to value 2
Set parameter RINS to value 100
Set parameter MIPGap to value 0.01
Set parameter Threads to value 9
Set parameter TimeLimit to value 259200
Set parameter IterationLimit to value 760000000
Gurobi Optimizer version 10.0.0 build v10.0.0rc2 (win64)

CPU model: Intel(R) Core(TM) i7-8700 CPU @ 3.20GHz, instruction set [SSE2|AVX|AVX2]
Thread count: 6 physical cores, 12 logical processors, using up to 9 threads

Optimize a model with 13103 rows, 6953 columns and 32439 nonzeros
Model fingerprint: 0x760c7396
Coefficient statistics:
  Matrix range     [6e-04, 1e+03]
  Objective range  [1e+00, 1e+00]
  Bounds range     [9e-05, 2e+00]
  RHS range        [9e-05, 2e+01]
Presolve removed 11938 rows and 4604 columns
Presolve time: 0.01s
Presolved: 1165 rows, 2399 columns, 5179 nonzeros

Ordering time: 0.00s

Barrier statistics:
 AA' NZ     : 2.575e+03
 Factor NZ  : 1.152e+04 (roughly 2 MB of memory)
 Factor Ops : 1.500e+05 (less than 1 second per iteration)
 Threads    : 1

                  Objective                Residual
Iter       Primal          Dual         Primal    Dual     Compl     Time
   0   5.25301079e+05 -1.27574252e+07  6.46e+00 2.55e+02  1.22e+04     0s
   1   8.76343253e+04 -6.43263567e+06  9.23e-01 1.18e-11  2.15e+03     0s
   2   2.32152184e+04 -1.97211192e+06  7.94e-02 9.09e-12  4.11e+02     0s
   3   1.15185820e+04 -1.07622262e+05  6.28e-04 8.19e-12  2.19e+01     0s
   4   3.10265927e+03 -1.39894781e+04  4.42e-05 5.46e-12  3.13e+00     0s
   5   1.36396066e+03 -2.92758384e+03  6.30e-06 2.52e-12  7.86e-01     0s
   6   5.14257515e+02 -1.03713103e+03  1.45e-07 2.47e-12  2.84e-01     0s
   7   2.21493707e+02 -1.66151264e+02  2.12e-08 4.09e-12  7.10e-02     0s
   8   1.58883367e+02 -3.55248286e+01  1.11e-08 3.70e-12  3.56e-02     0s
   9   1.13129298e+02  4.22662456e+01  4.46e-09 2.77e-12  1.30e-02     0s
  10   8.72460537e+01  7.03556599e+01  9.26e-10 2.46e-12  3.09e-03     0s
  11   8.08373558e+01  7.66383317e+01  1.90e-10 3.05e-12  7.69e-04     0s
  12   7.95415996e+01  7.82080176e+01  6.04e-11 1.77e-12  2.44e-04     0s
  13   7.89245806e+01  7.88126533e+01  3.45e-12 2.14e-12  2.05e-05     0s
  14   7.88820473e+01  7.88795254e+01  1.31e-13 3.35e-12  4.62e-07     0s
  15   7.88803373e+01  7.88803348e+01  9.23e-14 2.30e-12  4.64e-10     0s
  16   7.88803356e+01  7.88803356e+01  9.81e-14 4.12e-12  4.64e-13     0s

Barrier solved model in 16 iterations and 0.03 seconds (0.03 work units)
Optimal objective 7.88803356e+01

Crossover log...

     564 DPushes remaining with DInf 0.0000000e+00                 0s
       0 DPushes remaining with DInf 0.0000000e+00                 0s

      26 PPushes remaining with PInf 0.0000000e+00                 0s
       0 PPushes remaining with PInf 0.0000000e+00                 0s

  Push phase complete: Pinf 0.0000000e+00, Dinf 1.4435501e-13      0s

Iteration    Objective       Primal Inf.    Dual Inf.      Time
      60    7.8880336e+01   0.000000e+00   0.000000e+00      0s

Solved in 60 iterations and 0.03 seconds (0.03 work units)
Optimal objective  7.888033558e+01
